db/data/458822801493424043673716773161515328.z3.out
-------------------
2500.244701094
